GLPSOL--GLPK LP/MIP Solver 5.0
Parameter(s) specified in the command line:
 --lp ../modeles/10_194.lp --log 10_194.log
Reading problem data from '../modeles/10_194.lp'...
1981 rows, 3900 columns, 13610 non-zeros
1940 integer variables, all of which are binary
5897 lines were read
GLPK Integer Optimizer 5.0
1981 rows, 3900 columns, 13610 non-zeros
1940 integer variables, all of which are binary
Preprocessing...
1940 constraint coefficient(s) were reduced
1981 rows, 3890 columns, 13600 non-zeros
1940 integer variables, all of which are binary
Scaling...
 A: min|aij| =  4.251e-04  max|aij| =  4.000e+00  ratio =  9.409e+03
GM: min|aij| =  1.015e-01  max|aij| =  9.849e+00  ratio =  9.700e+01
EQ: min|aij| =  1.031e-02  max|aij| =  1.000e+00  ratio =  9.700e+01
2N: min|aij| =  7.812e-03  max|aij| =  1.766e+00  ratio =  2.260e+02
Constructing initial basis...
Size of triangular part is 1981
Solving LP relaxation...
GLPK Simplex Optimizer 5.0
1981 rows, 3890 columns, 13600 non-zeros
      0: obj =   2.000000000e+01 inf =   4.950e+01 (21)
    149: obj =   1.931908786e-01 inf =   0.000e+00 (0)
*   557: obj =  -3.160791487e+00 inf =   2.370e-14 (0)
OPTIMAL LP SOLUTION FOUND
Integer optimization begins...
Long-step dual simplex will be used
+   557: mip =     not found yet >=              -inf        (1; 0)
+   559: >>>>>  -3.160791487e+00 >=  -3.160791487e+00 < 0.1% (2; 0)
+   559: mip =  -3.160791487e+00 >=     tree is empty   0.0% (0; 3)
INTEGER OPTIMAL SOLUTION FOUND
Time used:   0.1 secs
Memory used: 5.6 Mb (5901044 bytes)
